c nIsolatedPIs 0
c maxPI 32
p cnf 174 427
c gate 33 -12 -28 0
-12 -33 0
-28 -33 0
12 28 33 0
c gate 34 12 28 0
12 -34 0
28 -34 0
-12 -28 34 0
c gate 35 -33 -34 0
-33 -35 0
-34 -35 0
33 34 35 0
c gate 36 -11 -27 0
-11 -36 0
-27 -36 0
11 27 36 0
c gate 37 -2 -18 0
-2 -37 0
-18 -37 0
2 18 37 0
c gate 38 1 17 0
1 -38 0
17 -38 0
-1 -17 38 0
c gate 39 -37 38 0
-37 -39 0
38 -39 0
37 -38 39 0
c gate 40 3 19 0
3 -40 0
19 -40 0
-3 -19 40 0
c gate 41 2 18 0
2 -41 0
18 -41 0
-2 -18 41 0
c gate 42 -40 -41 0
-40 -42 0
-41 -42 0
40 41 42 0
c gate 43 -39 42 0
-39 -43 0
42 -43 0
39 -42 43 0
c gate 44 -4 -20 0
-4 -44 0
-20 -44 0
4 20 44 0
c gate 45 -3 -19 0
-3 -45 0
-19 -45 0
3 19 45 0
c gate 46 -44 -45 0
-44 -46 0
-45 -46 0
44 45 46 0
c gate 47 -43 46 0
-43 -47 0
46 -47 0
43 -46 47 0
c gate 48 4 20 0
4 -48 0
20 -48 0
-4 -20 48 0
c gate 49 5 21 0
5 -49 0
21 -49 0
-5 -21 49 0
c gate 50 -48 -49 0
-48 -50 0
-49 -50 0
48 49 50 0
c gate 51 -47 50 0
-47 -51 0
50 -51 0
47 -50 51 0
c gate 52 -6 -22 0
-6 -52 0
-22 -52 0
6 22 52 0
c gate 53 -5 -21 0
-5 -53 0
-21 -53 0
5 21 53 0
c gate 54 -52 -53 0
-52 -54 0
-53 -54 0
52 53 54 0
c gate 55 -51 54 0
-51 -55 0
54 -55 0
51 -54 55 0
c gate 56 6 22 0
6 -56 0
22 -56 0
-6 -22 56 0
c gate 57 7 -23 0
7 -57 0
-23 -57 0
-7 23 57 0
c gate 58 -7 23 0
-7 -58 0
23 -58 0
7 -23 58 0
c gate 59 -57 -58 0
-57 -59 0
-58 -59 0
57 58 59 0
c gate 60 -56 -59 0
-56 -60 0
-59 -60 0
56 59 60 0
c gate 61 -55 60 0
-55 -61 0
60 -61 0
55 -60 61 0
c gate 62 -8 -24 0
-8 -62 0
-24 -62 0
8 24 62 0
c gate 63 -7 -23 0
-7 -63 0
-23 -63 0
7 23 63 0
c gate 64 -62 -63 0
-62 -64 0
-63 -64 0
62 63 64 0
c gate 65 -61 64 0
-61 -65 0
64 -65 0
61 -64 65 0
c gate 66 9 25 0
9 -66 0
25 -66 0
-9 -25 66 0
c gate 67 8 24 0
8 -67 0
24 -67 0
-8 -24 67 0
c gate 68 -66 -67 0
-66 -68 0
-67 -68 0
66 67 68 0
c gate 69 -65 68 0
-65 -69 0
68 -69 0
65 -68 69 0
c gate 70 -9 -25 0
-9 -70 0
-25 -70 0
9 25 70 0
c gate 71 -10 -26 0
-10 -71 0
-26 -71 0
10 26 71 0
c gate 72 -70 -71 0
-70 -72 0
-71 -72 0
70 71 72 0
c gate 73 -69 72 0
-69 -73 0
72 -73 0
69 -72 73 0
c gate 74 11 27 0
11 -74 0
27 -74 0
-11 -27 74 0
c gate 75 10 26 0
10 -75 0
26 -75 0
-10 -26 75 0
c gate 76 -74 -75 0
-74 -76 0
-75 -76 0
74 75 76 0
c gate 77 -73 76 0
-73 -77 0
76 -77 0
73 -76 77 0
c gate 78 -36 -77 0
-36 -78 0
-77 -78 0
36 77 78 0
c gate 79 35 78 0
35 -79 0
78 -79 0
-35 -78 79 0
c gate 80 -13 -29 0
-13 -80 0
-29 -80 0
13 29 80 0
c gate 81 13 29 0
13 -81 0
29 -81 0
-13 -29 81 0
c gate 82 -80 -81 0
-80 -82 0
-81 -82 0
80 81 82 0
c gate 83 -14 -30 0
-14 -83 0
-30 -83 0
14 30 83 0
c gate 84 14 30 0
14 -84 0
30 -84 0
-14 -30 84 0
c gate 85 -83 -84 0
-83 -85 0
-84 -85 0
83 84 85 0
c gate 86 82 85 0
82 -86 0
85 -86 0
-82 -85 86 0
c gate 87 -15 -31 0
-15 -87 0
-31 -87 0
15 31 87 0
c gate 88 15 31 0
15 -88 0
31 -88 0
-15 -31 88 0
c gate 89 -87 -88 0
-87 -89 0
-88 -89 0
87 88 89 0
c gate 90 -16 -32 0
-16 -90 0
-32 -90 0
16 32 90 0
c gate 91 16 32 0
16 -91 0
32 -91 0
-16 -32 91 0
c gate 92 -90 -91 0
-90 -92 0
-91 -92 0
90 91 92 0
c gate 93 89 92 0
89 -93 0
92 -93 0
-89 -92 93 0
c gate 94 86 93 0
86 -94 0
93 -94 0
-86 -93 94 0
c gate 95 79 -94 0
79 -95 0
-94 -95 0
-79 94 95 0
c gate 96 -64 -67 0
-64 -96 0
-67 -96 0
64 67 96 0
c gate 97 -70 -96 0
-70 -97 0
-96 -97 0
70 96 97 0
c gate 98 -66 -75 0
-66 -98 0
-75 -98 0
66 75 98 0
c gate 99 -97 98 0
-97 -99 0
98 -99 0
97 -98 99 0
c gate 100 -36 -74 0
-36 -100 0
-74 -100 0
36 74 100 0
c gate 101 -71 100 0
-71 -101 0
100 -101 0
71 -100 101 0
c gate 102 -99 101 0
-99 -102 0
101 -102 0
99 -101 102 0
c gate 103 -74 -102 0
-74 -103 0
-102 -103 0
74 102 103 0
c gate 104 -35 78 0
-35 -104 0
78 -104 0
35 -78 104 0
c gate 105 103 -104 0
103 -105 0
-104 -105 0
-103 104 105 0
c gate 106 35 -78 0
35 -106 0
-78 -106 0
-35 78 106 0
c gate 107 -103 -106 0
-103 -107 0
-106 -107 0
103 106 107 0
c gate 108 -105 -107 0
-105 -108 0
-107 -108 0
105 107 108 0
c gate 109 -62 -67 0
-62 -109 0
-67 -109 0
62 67 109 0
c gate 110 61 109 0
61 -110 0
109 -110 0
-61 -109 110 0
c gate 111 108 110 0
108 -111 0
110 -111 0
-108 -110 111 0
c gate 112 -95 -111 0
-95 -112 0
-111 -112 0
95 111 112 0
c gate 113 -66 -70 0
-66 -113 0
-70 -113 0
66 70 113 0
c gate 114 -2 18 0
-2 -114 0
18 -114 0
2 -18 114 0
c gate 115 -1 17 0
-1 -115 0
17 -115 0
1 -17 115 0
c gate 116 -114 -115 0
-114 -116 0
-115 -116 0
114 115 116 0
c gate 117 2 -18 0
2 -117 0
-18 -117 0
-2 18 117 0
c gate 118 3 -19 0
3 -118 0
-19 -118 0
-3 19 118 0
c gate 119 -117 -118 0
-117 -119 0
-118 -119 0
117 118 119 0
c gate 120 -116 119 0
-116 -120 0
119 -120 0
116 -119 120 0
c gate 121 -4 20 0
-4 -121 0
20 -121 0
4 -20 121 0
c gate 122 -3 19 0
-3 -122 0
19 -122 0
3 -19 122 0
c gate 123 -121 -122 0
-121 -123 0
-122 -123 0
121 122 123 0
c gate 124 -120 123 0
-120 -124 0
123 -124 0
120 -123 124 0
c gate 125 5 -21 0
5 -125 0
-21 -125 0
-5 21 125 0
c gate 126 4 -20 0
4 -126 0
-20 -126 0
-4 20 126 0
c gate 127 -125 -126 0
-125 -127 0
-126 -127 0
125 126 127 0
c gate 128 -124 127 0
-124 -128 0
127 -128 0
124 -127 128 0
c gate 129 -52 -56 0
-52 -129 0
-56 -129 0
52 56 129 0
c gate 130 -5 21 0
-5 -130 0
21 -130 0
5 -21 130 0
c gate 131 -129 -130 0
-129 -131 0
-130 -131 0
129 130 131 0
c gate 132 -128 131 0
-128 -132 0
131 -132 0
128 -131 132 0
c gate 133 6 -22 0
6 -133 0
-22 -133 0
-6 22 133 0
c gate 134 -57 -133 0
-57 -134 0
-133 -134 0
57 133 134 0
c gate 135 -132 134 0
-132 -135 0
134 -135 0
132 -134 135 0
c gate 136 -58 -109 0
-58 -136 0
-109 -136 0
58 109 136 0
c gate 137 -135 136 0
-135 -137 0
136 -137 0
135 -136 137 0
c gate 138 -113 137 0
-113 -138 0
137 -138 0
113 -137 138 0
c gate 139 -112 -132 0
-112 -139 0
-132 -139 0
112 132 139 0
c gate 140 59 -109 0
59 -140 0
-109 -140 0
-59 109 140 0
c gate 141 132 -140 0
132 -141 0
-140 -141 0
-132 140 141 0
c gate 142 -139 -141 0
-139 -142 0
-141 -142 0
139 141 142 0
c gate 143 -137 142 0
-137 -143 0
142 -143 0
137 -142 143 0
c gate 144 -138 -143 0
-138 -144 0
-143 -144 0
138 143 144 0
c gate 145 -71 -75 0
-71 -145 0
-75 -145 0
71 75 145 0
c gate 146 8 -24 0
8 -146 0
-24 -146 0
-8 24 146 0
c gate 147 138 -146 0
138 -147 0
-146 -147 0
-138 146 147 0
c gate 148 145 147 0
145 -148 0
147 -148 0
-145 -147 148 0
c gate 149 -144 -148 0
-144 -149 0
-148 -149 0
144 148 149 0
c gate 150 100 -145 0
100 -150 0
-145 -150 0
-100 145 150 0
c gate 151 147 150 0
147 -151 0
150 -151 0
-147 -150 151 0
c gate 152 149 -151 0
149 -152 0
-151 -152 0
-149 151 152 0
c gate 153 -10 26 0
-10 -153 0
26 -153 0
10 -26 153 0
c gate 154 -113 146 0
-113 -154 0
146 -154 0
113 -146 154 0
c gate 155 9 -25 0
9 -155 0
-25 -155 0
-9 25 155 0
c gate 156 -154 -155 0
-154 -156 0
-155 -156 0
154 155 156 0
c gate 157 -138 156 0
-138 -157 0
156 -157 0
138 -156 157 0
c gate 158 -153 -157 0
-153 -158 0
-157 -158 0
153 157 158 0
c gate 159 10 -26 0
10 -159 0
-26 -159 0
-10 26 159 0
c gate 160 -100 -159 0
-100 -160 0
-159 -160 0
100 159 160 0
c gate 161 -158 160 0
-158 -161 0
160 -161 0
158 -160 161 0
c gate 162 -152 -161 0
-152 -162 0
-161 -162 0
152 161 162 0
c gate 163 -35 -82 0
-35 -163 0
-82 -163 0
35 82 163 0
c gate 164 -85 -89 0
-85 -164 0
-89 -164 0
85 89 164 0
c gate 165 -92 164 0
-92 -165 0
164 -165 0
92 -164 165 0
c gate 166 163 165 0
163 -166 0
165 -166 0
-163 -165 166 0
c gate 167 161 166 0
161 -167 0
166 -167 0
-161 -166 167 0
c gate 168 -162 -167 0
-162 -168 0
-167 -168 0
162 167 168 0
c gate 169 -112 168 0
-112 -169 0
168 -169 0
112 -168 169 0
c gate 170 61 -108 0
61 -170 0
-108 -170 0
-61 108 170 0
c gate 171 -79 -170 0
-79 -171 0
-170 -171 0
79 170 171 0
c gate 172 -95 -171 0
-95 -172 0
-171 -172 0
95 171 172 0
c gate 173 -168 172 0
-168 -173 0
172 -173 0
168 -172 173 0
c gate 174 -169 -173 0
-169 -174 0
-173 -174 0
169 173 174 0
c PO
-174 0
